language ESSENCE' 1.0

letting jobs = 102
letting horizon = 813
letting resourcesRenew = 2
letting resourcesNonrenew = 2
letting resourceLimits = [13, 13, 173, 146]
letting successors = [[2, 3, 4, 5, 6, 7, 10, 11, 12, 15], [19, 17, 14, 9, 8], [26, 22, 20, 13, 8], [26, 16, 8], [19, 9, 8], [17, 9, 8], [31, 30, 28, 27, 25, 24, 23, 21, 19, 18], [31, 30, 28, 27, 25, 24, 23, 21, 18], [31, 30, 28, 27, 25, 23, 20, 18], [32, 31, 30, 25, 24, 23, 18], [35, 34, 31, 30, 29, 27, 24, 19], [34, 28, 24, 16], [35, 31, 25, 24, 19], [48, 37, 32, 29, 25, 24], [40, 35, 34, 30, 29, 28], [32, 29, 19], [51, 48, 43, 40, 37, 36, 35, 32, 29], [48, 43, 40, 36, 35, 34, 29], [51, 48, 43, 42, 40, 39, 38, 37, 36, 33], [45, 43, 39, 37, 32, 29], [48, 45, 42, 34, 29], [48, 44, 43, 42, 40, 38, 36, 33], [51, 47, 45, 44, 42, 41, 40, 39, 38, 37], [51, 45, 44, 43, 42, 40, 39, 38, 33], [47, 44, 42, 41, 38, 36, 34], [51, 43, 42, 29], [51, 45, 39, 37, 32], [51, 47, 45, 43, 38, 37], [54, 50, 44, 38, 33], [57, 55, 51, 47, 45, 44, 42, 39], [53, 52, 47, 45, 43, 41], [55, 50, 46, 42, 38], [53, 52, 47, 46, 41], [55, 52, 51, 46, 39], [57, 55, 53, 50, 42], [57, 52, 50, 49, 45], [57, 56, 55, 50, 46], [57, 53, 52, 49], [54, 53, 49], [53, 52, 49], [60, 57, 56, 55, 49], [60, 56, 52, 49], [69, 62, 61, 60, 56, 49], [76, 69, 65, 64, 63, 62, 61, 60, 59, 58, 56], [65, 64, 58, 56, 54], [69, 67, 65, 64, 63, 62, 61, 59, 58], [76, 71, 69, 65, 63, 62, 61, 60, 56], [71, 65, 64, 63, 62, 61, 60, 59, 56], [76, 67, 65, 64, 63, 59, 58], [67, 66, 63, 62, 61, 60, 58], [76, 67, 63, 61, 59, 58], [77, 71, 69, 66, 65, 64, 62, 61], [65, 62, 61, 60, 56], [76, 69, 61, 60, 59], [85, 77, 76, 75, 69, 68, 66, 64, 62], [85, 78, 77, 74, 68, 67, 66], [85, 79, 76, 74, 68, 66, 65], [85, 78, 77, 74, 72, 71, 70, 68], [79, 78, 74, 68, 66], [93, 82, 81, 79, 78, 77, 74, 70], [85, 75, 72, 68], [82, 81, 79, 74, 72, 70], [85, 70, 68], [93, 86, 82, 81, 79, 78, 70], [93, 92, 91, 86, 82, 81, 80, 78, 73], [82, 81, 72, 70], [100, 93, 91, 90, 86, 84, 79, 75], [101, 93, 86, 82, 81, 80, 73], [101, 91, 90, 89, 88, 86, 84, 83, 82], [101, 92, 91, 89, 73], [101, 97, 93, 92, 89, 88, 82], [101, 91, 89, 87, 86, 80], [100, 99, 98, 90, 88, 84, 83], [100, 98, 90, 89, 88, 84, 83], [101, 98, 92, 87, 81], [100, 99, 98, 97, 90, 89, 88, 87], [98, 97, 90, 89, 88, 87, 86], [101, 90, 89, 88, 83], [98, 89, 88, 83], [100, 99, 98, 97, 96, 95, 88], [99, 97, 96, 95, 89, 88], [100, 99, 98, 96, 87], [97, 96, 94, 87], [97, 96, 94, 87], [99, 97, 96, 94], [96, 95, 94], [95], [94], [94], [94], [94], [94], [95], [102], [102], [102], [102], [102], [102], [102], [102], []]
letting durations = [[0], [5, 6, 10], [3, 5, 6], [2, 2, 10], [2, 3, 4], [3, 8, 10], [1, 1, 9], [1, 8, 9], [3, 8, 10], [3, 8, 10], [3, 6, 10], [1, 7, 9], [3, 4, 10], [1, 3, 4], [2, 3, 9], [1, 5, 6], [1, 5, 7], [1, 3, 7], [7, 9, 10], [5, 6, 8], [3, 7, 8], [4, 4, 5], [1, 8, 9], [5, 8, 9], [1, 2, 5], [1, 8, 9], [4, 4, 6], [1, 5, 6], [8, 9, 10], [1, 7, 8], [2, 3, 10], [3, 3, 6], [6, 7, 10], [2, 3, 6], [1, 2, 5], [1, 2, 10], [6, 7, 10], [8, 9, 10], [2, 7, 10], [3, 8, 10], [8, 9, 9], [2, 3, 4], [1, 6, 7], [2, 3, 5], [2, 4, 9], [2, 3, 4], [3, 5, 9], [1, 2, 7], [2, 3, 4], [4, 9, 9], [2, 3, 7], [2, 8, 9], [4, 5, 10], [5, 8, 10], [3, 4, 10], [2, 2, 7], [2, 7, 7], [1, 2, 8], [3, 3, 8], [5, 6, 9], [4, 5, 7], [2, 2, 3], [1, 3, 4], [1, 7, 9], [3, 5, 6], [1, 3, 9], [4, 7, 7], [1, 7, 8], [3, 5, 9], [2, 5, 10], [3, 8, 10], [2, 4, 9], [2, 3, 10], [9, 10, 10], [2, 4, 8], [7, 8, 9], [4, 5, 9], [1, 6, 8], [4, 4, 10], [4, 7, 10], [7, 8, 10], [5, 8, 10], [7, 8, 9], [2, 5, 7], [3, 7, 9], [6, 8, 10], [5, 9, 10], [2, 2, 4], [1, 5, 9], [1, 2, 10], [1, 9, 10], [5, 6, 9], [2, 8, 9], [1, 7, 8], [3, 4, 6], [2, 4, 9], [1, 3, 6], [2, 4, 5], [2, 6, 10], [1, 2, 7], [4, 5, 9], [0]]
letting resourceUsage = [[[0, 0, 0, 0]], [[4, 3, 0, 3], [4, 3, 0, 2], [3, 1, 0, 2]], [[3, 5, 0, 7], [2, 4, 3, 0], [2, 2, 2, 0]], [[3, 3, 0, 3], [3, 3, 6, 0], [3, 3, 0, 1]], [[1, 4, 8, 0], [1, 4, 0, 3], [1, 4, 6, 0]], [[5, 3, 0, 4], [2, 3, 2, 0], [1, 3, 0, 1]], [[2, 4, 5, 0], [1, 4, 0, 3], [1, 4, 0, 2]], [[4, 4, 0, 3], [4, 4, 1, 0], [4, 3, 1, 0]], [[3, 4, 4, 0], [2, 3, 3, 0], [2, 1, 1, 0]], [[5, 4, 0, 8], [2, 3, 0, 7], [2, 2, 3, 0]], [[5, 3, 8, 0], [5, 2, 8, 0], [5, 2, 6, 0]], [[2, 5, 0, 6], [2, 5, 3, 0], [2, 5, 1, 0]], [[4, 1, 0, 10], [4, 1, 0, 7], [4, 1, 6, 0]], [[2, 1, 0, 8], [1, 1, 0, 6], [1, 1, 0, 5]], [[3, 2, 0, 5], [2, 2, 0, 4], [2, 2, 0, 3]], [[3, 4, 10, 0], [3, 4, 0, 1], [3, 3, 0, 1]], [[3, 5, 0, 7], [3, 3, 0, 3], [2, 3, 4, 0]], [[3, 3, 5, 0], [2, 1, 3, 0], [1, 1, 2, 0]], [[4, 4, 0, 9], [3, 3, 0, 7], [3, 1, 0, 6]], [[4, 4, 10, 0], [4, 4, 0, 1], [3, 4, 0, 1]], [[2, 4, 3, 0], [2, 3, 0, 6], [1, 3, 0, 6]], [[3, 2, 8, 0], [3, 1, 0, 6], [2, 1, 0, 1]], [[3, 3, 0, 10], [2, 3, 0, 7], [1, 2, 0, 4]], [[3, 4, 0, 8], [3, 4, 7, 0], [3, 4, 0, 5]], [[3, 3, 7, 0], [2, 2, 0, 2], [2, 2, 0, 1]], [[2, 4, 8, 0], [2, 3, 0, 5], [2, 3, 0, 4]], [[4, 3, 0, 10], [2, 2, 2, 0], [2, 2, 1, 0]], [[5, 1, 0, 7], [4, 1, 3, 0], [2, 1, 3, 0]], [[4, 3, 5, 0], [3, 2, 5, 0], [3, 1, 0, 5]], [[4, 4, 1, 0], [3, 3, 0, 3], [3, 3, 0, 2]], [[2, 3, 7, 0], [2, 3, 5, 0], [2, 3, 3, 0]], [[4, 4, 10, 0], [3, 3, 0, 3], [3, 3, 0, 2]], [[3, 2, 0, 7], [2, 1, 2, 0], [1, 1, 1, 0]], [[5, 3, 10, 0], [4, 3, 0, 2], [4, 2, 10, 0]], [[3, 4, 5, 0], [2, 3, 0, 5], [1, 2, 0, 4]], [[4, 4, 0, 2], [2, 3, 0, 2], [2, 2, 3, 0]], [[5, 5, 10, 0], [4, 4, 5, 0], [4, 4, 3, 0]], [[3, 4, 10, 0], [3, 3, 8, 0], [3, 2, 0, 2]], [[5, 5, 8, 0], [4, 5, 0, 6], [4, 5, 0, 2]], [[2, 3, 0, 7], [2, 3, 0, 6], [1, 3, 3, 0]], [[2, 4, 0, 7], [2, 4, 2, 0], [1, 4, 0, 5]], [[1, 2, 7, 0], [1, 1, 0, 2], [1, 1, 1, 0]], [[3, 3, 0, 9], [1, 3, 0, 4], [1, 3, 0, 3]], [[4, 4, 10, 0], [3, 3, 5, 0], [3, 2, 3, 0]], [[4, 2, 9, 0], [3, 2, 0, 2], [3, 1, 0, 2]], [[2, 2, 0, 8], [2, 1, 6, 0], [2, 1, 5, 0]], [[5, 4, 5, 0], [5, 3, 3, 0], [5, 3, 0, 3]], [[3, 4, 3, 0], [2, 2, 0, 7], [2, 1, 2, 0]], [[5, 5, 0, 4], [4, 5, 0, 2], [4, 5, 2, 0]], [[4, 3, 4, 0], [4, 2, 0, 5], [4, 1, 1, 0]], [[2, 4, 0, 6], [1, 3, 0, 3], [1, 2, 0, 1]], [[3, 4, 10, 0], [2, 4, 0, 6], [1, 3, 0, 3]], [[4, 3, 2, 0], [4, 3, 0, 6], [4, 3, 0, 5]], [[4, 4, 6, 0], [3, 4, 6, 0], [1, 4, 6, 0]], [[3, 5, 0, 4], [3, 4, 2, 0], [2, 4, 0, 3]], [[3, 3, 4, 0], [3, 2, 0, 7], [3, 2, 0, 6]], [[4, 2, 4, 0], [4, 2, 2, 0], [4, 2, 0, 6]], [[4, 3, 0, 2], [4, 2, 0, 2], [3, 2, 0, 2]], [[3, 2, 0, 1], [3, 1, 8, 0], [2, 1, 0, 1]], [[2, 3, 10, 0], [2, 2, 9, 0], [2, 2, 8, 0]], [[2, 3, 0, 10], [1, 2, 0, 7], [1, 1, 0, 6]], [[4, 4, 4, 0], [4, 4, 0, 8], [3, 4, 0, 6]], [[4, 4, 8, 0], [4, 4, 7, 0], [3, 2, 6, 0]], [[4, 5, 0, 6], [3, 4, 8, 0], [2, 4, 8, 0]], [[4, 2, 6, 0], [4, 2, 0, 4], [4, 2, 0, 3]], [[2, 1, 0, 3], [1, 1, 3, 0], [1, 1, 0, 1]], [[3, 3, 10, 0], [2, 3, 0, 8], [2, 3, 3, 0]], [[2, 4, 0, 8], [2, 4, 1, 0], [2, 4, 0, 7]], [[2, 4, 0, 3], [2, 2, 0, 2], [1, 1, 4, 0]], [[3, 5, 0, 10], [3, 4, 8, 0], [1, 4, 4, 0]], [[1, 3, 7, 0], [1, 3, 3, 0], [1, 2, 1, 0]], [[4, 5, 2, 0], [3, 5, 2, 0], [3, 5, 1, 0]], [[2, 3, 2, 0], [2, 2, 0, 2], [2, 2, 0, 1]], [[4, 3, 0, 5], [2, 3, 4, 0], [2, 3, 0, 3]], [[4, 3, 5, 0], [2, 2, 3, 0], [2, 1, 3, 0]], [[5, 2, 8, 0], [5, 1, 7, 0], [5, 1, 2, 0]], [[1, 5, 0, 7], [1, 5, 0, 6], [1, 5, 0, 3]], [[4, 2, 0, 6], [4, 2, 0, 5], [2, 2, 4, 0]], [[2, 2, 6, 0], [1, 1, 0, 6], [1, 1, 0, 1]], [[1, 5, 0, 7], [1, 3, 0, 5], [1, 1, 0, 2]], [[5, 5, 0, 2], [3, 3, 0, 1], [1, 2, 2, 0]], [[2, 4, 0, 7], [2, 4, 0, 6], [2, 4, 0, 5]], [[2, 2, 0, 6], [2, 1, 0, 6], [2, 1, 0, 5]], [[2, 3, 0, 8], [2, 3, 7, 0], [2, 3, 0, 3]], [[3, 4, 10, 0], [3, 4, 0, 2], [3, 4, 0, 1]], [[3, 3, 7, 0], [3, 2, 0, 7], [3, 2, 0, 4]], [[4, 3, 9, 0], [2, 1, 5, 0], [1, 1, 0, 7]], [[5, 4, 0, 10], [4, 3, 4, 0], [3, 1, 0, 9]], [[5, 4, 0, 9], [3, 3, 3, 0], [2, 3, 3, 0]], [[5, 1, 10, 0], [2, 1, 7, 0], [2, 1, 6, 0]], [[4, 4, 8, 0], [4, 3, 6, 0], [3, 3, 0, 3]], [[2, 4, 9, 0], [2, 3, 9, 0], [2, 2, 9, 0]], [[3, 4, 0, 8], [3, 4, 2, 0], [3, 4, 1, 0]], [[4, 5, 9, 0], [3, 3, 9, 0], [3, 1, 0, 1]], [[2, 3, 4, 0], [2, 3, 2, 0], [2, 3, 0, 5]], [[3, 1, 0, 9], [3, 1, 8, 0], [3, 1, 0, 8]], [[2, 5, 9, 0], [2, 2, 8, 0], [1, 2, 8, 0]], [[4, 1, 0, 4], [3, 1, 7, 0], [2, 1, 0, 1]], [[2, 5, 6, 0], [2, 4, 0, 5], [2, 4, 0, 2]], [[1, 2, 0, 2], [1, 2, 4, 0], [1, 2, 3, 0]], [[3, 1, 5, 0], [3, 1, 4, 0], [3, 1, 0, 3]], [[0, 0, 0, 0]]]
